
List of user-set options:

                                    Name   Value                used
                           compl_inf_tol = 1                     yes
                         constr_viol_tol = 1                     yes
                            dual_inf_tol = 1000                  yes
                           linear_solver = ma97                  yes
                              ma86_small = 1e-30                  no
                                  ma86_u = 0.0001                 no
                              ma97_order = best                  yes
                              ma97_small = 1e-30                 yes
                            ma97_switch1 = at_start              yes
                            ma97_switch2 = od_hd_reuse           yes
                                  ma97_u = 1e-06                 yes
                               ma97_umax = 0.5                   yes
                                max_iter = 1000                  yes
                    max_refinement_steps = 20                    yes
                    min_refinement_steps = 5                     yes
                                 mu_init = 1e-06                 yes
           mu_superlinear_decrease_power = 1.25                  yes
                   nlp_scaling_min_value = 1e-08                 yes
                        option_file_name = Preset_Case:_647_NCP.opt  yes
                             output_file = ./tmp/Preset_Case:_647_NCP.output  yes
                      print_user_options = yes                   yes
        required_infeasibility_reduction = 1                      no
                                     tol = 1e-08                 yes
                   warm_start_bound_frac = 1e-20                 yes
                   warm_start_bound_push = 1e-20                 yes
                   warm_start_init_point = yes                   yes
              warm_start_mult_bound_push = 1e-20                 yes
                warm_start_mult_init_max = 1e+40                 yes
             warm_start_slack_bound_frac = 1e-20                 yes
             warm_start_slack_bound_push = 1e-20                 yes

******************************************************************************
This program contains Ipopt, a library for large-scale nonlinear optimization.
 Ipopt is released as open source code under the Eclipse Public License (EPL).
         For more information visit http://projects.coin-or.org/Ipopt
******************************************************************************

This is Ipopt version 3.12.10, running with linear solver ma97.

Number of nonzeros in equality constraint Jacobian...:   117167
Number of nonzeros in inequality constraint Jacobian.:      213
Number of nonzeros in Lagrangian Hessian.............:    47513

Total number of variables............................:    29977
                     variables with only lower bounds:    11312
                variables with lower and upper bounds:    15135
                     variables with only upper bounds:        0
Total number of equality constraints.................:    29864
Total number of inequality constraints...............:       25
        inequality constraints with only lower bounds:        4
   inequality constraints with lower and upper bounds:        0
        inequality constraints with only upper bounds:       21

iter    objective    inf_pr   inf_du lg(mu)  ||d||  lg(rg) alpha_du alpha_pr  ls
   0 -1.5142705e-01 1.31e-01 2.00e+00  -6.0 0.00e+00    -  0.00e+00 0.00e+00   0
In iteration 0, 9 Slacks too small, adjusting variable bounds
   1 -1.5142705e-01 1.31e-01 5.39e+02  -6.0 1.06e+10    -  5.38e-14 6.99e-19h  1
   2 -1.5142552e-01 1.31e-01 5.40e+02  -6.0 2.40e+02    -  7.53e-08 2.85e-05f  1
   3 -1.5142552e-01 1.31e-01 5.36e+02  -6.0 1.77e+01    -  3.05e-02 2.09e-06h  2
   4 -1.5142174e-01 1.31e-01 5.36e+02  -6.0 2.27e+02    -  8.26e-05 7.51e-05h  1
   5 -1.5136038e-01 1.31e-01 5.34e+02  -6.0 1.86e+02    -  4.42e-02 2.36e-03h  1
   6 -1.5061666e-01 1.28e-01 5.23e+02  -6.0 2.75e+02    -  3.27e-03 2.28e-02h  2
   7 -1.4978922e-01 1.24e-01 5.06e+02  -6.0 1.59e+02    -  5.47e-02 3.03e-02h  2
   8 -1.4847906e-01 1.18e-01 4.80e+02  -6.0 1.55e+02    -  7.24e-02 5.05e-02h  1
   9 -1.4847868e-01 1.18e-01 5.29e+05  -6.0 1.68e+02    -  3.33e-01 1.57e-05h  1
iter    objective    inf_pr   inf_du lg(mu)  ||d||  lg(rg) alpha_du alpha_pr  ls
  10 -1.4771269e-01 1.14e-01 5.73e+05  -6.0 1.74e+02    -  1.15e-01 2.77e-02h  4
  11 -1.4684227e-01 1.11e-01 7.55e+05  -6.0 1.67e+02    -  3.63e-01 2.98e-02h  4
  12 -1.4605852e-01 1.09e-01 7.47e+05  -6.0 2.02e+02    -  4.96e-02 2.03e-02h  5
  13 -1.4555964e-01 1.07e-01 8.14e+05  -6.0 2.07e+02    -  2.96e-01 1.12e-02h  6
  14 -1.4523003e-01 1.07e-01 8.04e+05  -6.0 2.26e+02    -  1.18e-01 7.32e-03h  7
  15 -1.4463257e-01 1.05e-01 7.76e+05  -6.0 2.20e+02    -  2.16e-01 1.15e-02h  6
  16 -1.4434076e-01 1.05e-01 7.68e+05  -6.0 2.22e+02    -  2.17e-02 5.40e-03h  7
  17 -1.4404974e-01 1.04e-01 7.25e+05  -6.0 2.21e+02    -  2.29e-01 5.40e-03h  7
  18 -1.4375626e-01 1.04e-01 7.14e+05  -6.0 2.22e+02    -  3.41e-02 5.29e-03h  7
  19 -1.4346278e-01 1.03e-01 6.52e+05  -6.0 2.20e+02    -  2.62e-01 5.30e-03h  7
iter    objective    inf_pr   inf_du lg(mu)  ||d||  lg(rg) alpha_du alpha_pr  ls
  20 -1.2391839e-01 3.89e+00 5.03e+05  -6.0 2.15e+02    -  4.81e-02 3.45e-01w  1
  21 -1.0475949e-01 6.64e+00 2.09e+05  -6.0 1.43e+02    -  5.83e-01 5.88e-01w  1
  22 -1.0464870e-01 6.39e+00 2.68e+05  -6.0 9.92e+00  -2.0 4.71e-02 3.76e-02w  1
  23 -1.4315740e-01 1.03e-01 6.37e+05  -6.0 9.13e+00  -2.5 4.81e-02 5.40e-03h  6
  24 -1.4285063e-01 1.02e-01 5.56e+05  -6.0 2.17e+02    -  3.11e-01 5.43e-03h  7
  25 -1.4234742e-01 1.01e-01 5.36e+05  -6.0 2.86e+02    -  6.81e-02 8.67e-03h  6
  26 -1.4189111e-01 1.00e-01 4.31e+05  -6.0 2.87e+02    -  4.04e-01 7.87e-03h  6
  27 -1.4135807e-01 9.96e-02 4.04e+05  -6.0 7.77e+02    -  9.64e-02 7.09e-03h  3
  28 -1.4114814e-01 9.94e-02 3.41e+05  -6.0 7.23e+02    -  2.52e-01 2.73e-03h  4
  29 -1.4085296e-01 9.70e-02 4.32e+05  -6.0 5.46e+01  -3.0 9.40e-02 2.37e-02h  2
iter    objective    inf_pr   inf_du lg(mu)  ||d||  lg(rg) alpha_du alpha_pr  ls
  30 -1.4056286e-01 9.59e-02 5.48e+05  -6.0 8.47e+01  -3.4 2.66e-01 1.09e-02h  4
  31 -1.4037305e-01 9.56e-02 5.54e+05  -6.0 1.51e+02  -3.9 3.69e-01 3.94e-03h  8
  32 -1.3994516e-01 9.49e-02 5.34e+05  -6.0 2.00e+02  -4.4 7.73e-02 6.80e-03h  6
  33 -1.3691660e-01 1.87e-01 4.00e+05  -6.0 4.80e+02  -4.9 3.38e-01 3.31e-02w  1
  34 -1.0607550e-01 9.85e+00 2.51e+05  -6.0 2.39e+02  -5.3 2.69e-01 5.63e-01w  1
  35 -9.9843055e-02 6.53e+00 1.27e+05  -6.0 1.82e+02    -  5.82e-01 3.28e-01w  1
  36 -1.3918802e-01 9.41e-02 4.04e+05  -6.0 5.55e+01  -5.8 3.38e-01 8.27e-03h  2
  37 -1.3891536e-01 9.37e-02 3.82e+05  -6.0 1.71e+02  -4.5 1.51e-01 4.76e-03h  8
  38 -1.3872018e-01 9.33e-02 3.94e+05  -6.0 1.46e+02  -4.1 3.10e-01 4.16e-03h  8
  39 -1.3839180e-01 9.28e-02 3.72e+05  -6.0 1.83e+02  -4.5 1.47e-01 5.36e-03h  7
iter    objective    inf_pr   inf_du lg(mu)  ||d||  lg(rg) alpha_du alpha_pr  ls
  40 -1.3815784e-01 9.23e-02 3.92e+05  -6.0 1.53e+02  -4.1 5.44e-01 4.72e-03h  8
  41 -1.3782786e-01 9.19e-02 3.73e+05  -6.0 2.15e+02  -4.6 1.11e-01 4.95e-03h  6
  42 -1.3754233e-01 9.14e-02 3.87e+05  -6.0 1.60e+02  -4.2 5.74e-01 5.44e-03h  8
  43 -1.3682802e-01 9.05e-02 3.66e+05  -6.0 2.54e+02  -4.6 1.11e-01 1.00e-02h  4
  44 -1.3651765e-01 9.00e-02 3.80e+05  -6.0 1.61e+02  -4.2 7.32e-01 5.81e-03h  8
  45 -1.3573828e-01 8.91e-02 3.58e+05  -6.0 3.11e+02  -4.7 1.09e-01 9.90e-03h  3
  46 -9.3612679e-02 1.78e+01 7.65e+04  -6.0 1.61e+02  -4.3 5.45e-01 7.79e-01w  1
  47 -9.4729354e-02 1.12e+01 4.76e+04  -6.0 1.99e+01  -3.8 2.37e-02 3.77e-01w  1
  48 -9.7997249e-02 9.61e+00 1.27e+05  -6.0 4.95e+01  -4.3 4.81e-03 1.49e-01w  1
  49 -1.3540917e-01 8.85e-02 3.67e+05  -6.0 4.98e+02  -3.9 5.45e-01 6.09e-03h  7
iter    objective    inf_pr   inf_du lg(mu)  ||d||  lg(rg) alpha_du alpha_pr  ls
  50 -1.3479474e-01 8.76e-02 3.57e+05  -6.0 1.65e+02  -4.4 2.62e-01 1.07e-02h  7
  51 -1.3443235e-01 8.69e-02 4.68e+05  -6.0 1.30e+02  -3.9 5.64e-01 8.08e-03h  7
  52 -1.3346413e-01 8.55e-02 4.38e+05  -6.0 1.75e+02  -4.4 1.98e-01 1.56e-02h  6
  53 -1.3295510e-01 8.46e-02 5.18e+05  -6.0 1.43e+02  -4.0 6.11e-01 1.03e-02h  7
  54 -1.3194071e-01 8.33e-02 4.76e+05  -6.0 1.72e+02  -4.5 1.96e-01 1.59e-02h  5
  55 -1.3135756e-01 8.23e-02 5.60e+05  -6.0 1.47e+02  -4.0 9.89e-01 1.15e-02h  7
  56 -1.3020189e-01 8.09e-02 5.11e+05  -6.0 1.85e+02  -4.5 1.81e-01 1.78e-02h  4
  57 -1.2954206e-01 7.98e-02 5.21e+05  -6.0 1.49e+02  -4.1 3.97e-01 1.29e-02h  7
  58 -1.2819558e-01 7.82e-02 4.50e+05  -6.0 1.94e+02  -4.6 2.78e-01 2.08e-02h  3
  59 -9.0182937e-02 5.28e+00 1.09e+05  -6.0 1.38e+02  -4.1 1.00e+00 7.87e-01w  1
iter    objective    inf_pr   inf_du lg(mu)  ||d||  lg(rg) alpha_du alpha_pr  ls
  60 -8.9676290e-02 4.99e+00 9.79e+04  -6.0 1.96e+02  -4.6 9.02e-02 5.42e-02w  1
  61 -9.3103315e-02 3.57e+00 3.58e+05  -6.0 3.69e+01  -3.3 5.74e-05 2.91e-01w  1
  62 -1.2760164e-01 7.72e-02 4.94e+05  -6.0 3.64e+01  -3.8 1.00e+00 1.23e-02h  6
  63 -1.2700782e-01 7.63e-02 4.74e+05  -6.0 1.48e+02  -4.2 3.81e-01 1.14e-02h  7
  64 -1.2639513e-01 7.57e-02 2.61e+05  -6.0 3.08e+02  -4.7 7.25e-01 7.71e-03h  2
  65 -1.2558112e-01 7.43e-02 3.03e+05  -6.0 1.09e+02  -4.3 5.66e-01 1.94e-02h  5
  66 -1.2505058e-01 7.36e-02 2.61e+05  -6.0 2.08e+02  -4.8 3.31e-01 8.49e-03h  2
  67 -1.2360095e-01 7.18e-02 1.21e+05  -6.0 1.98e+02  -5.3 7.98e-01 2.46e-02h  4
  68 -1.2320133e-01 7.31e-02 1.08e+05  -6.0 3.17e+01  -3.9 1.41e-01 1.19e-01h  2
  69 -1.2319685e-01 8.40e-02 1.04e+05  -6.0 2.33e+01  -3.5 1.75e-01 1.28e-01H  1
iter    objective    inf_pr   inf_du lg(mu)  ||d||  lg(rg) alpha_du alpha_pr  ls
  70 -1.2319645e-01 8.40e-02 1.05e+05  -6.0 5.97e+01  -4.0 2.20e-02 5.86e-05h  1
  71 -1.2332748e-01 8.29e-02 9.12e+04  -6.0 5.17e+02  -4.5 2.39e-02 3.28e-03f  1
  72 -1.2404006e-01 8.49e-02 9.26e+04  -6.0 1.08e+03  -4.9 1.76e-02 6.08e-03f  3
  73 -1.2390068e-01 8.38e-02 8.51e+04  -6.0 6.01e+01  -4.5 2.23e-01 1.83e-02h  4
  74 -1.2334853e-01 9.22e-02 1.40e+05  -6.0 3.23e+01  -3.2 1.05e-01 3.87e-02h  1
  75 -1.2288437e-01 9.62e-02 2.96e+05  -6.0 3.46e+01  -3.7 5.72e-01 2.70e-02h  4
  76 -1.2243385e-01 1.01e-01 4.17e+05  -6.0 3.37e+01  -3.2 2.13e-01 2.72e-02h  4
  77 -1.2189890e-01 1.07e-01 4.72e+05  -6.0 3.98e+01  -3.7 8.26e-01 2.62e-02h  5
  78 -1.2143565e-01 1.13e-01 6.15e+05  -6.0 3.55e+01  -3.3 3.09e-01 2.55e-02h  5
  79 -1.2094474e-01 1.16e-01 5.03e+05  -6.0 4.41e+01  -3.8 1.00e+00 2.25e-02h  6
iter    objective    inf_pr   inf_du lg(mu)  ||d||  lg(rg) alpha_du alpha_pr  ls
  80 -1.2037640e-01 1.24e-01 6.38e+05  -6.0 3.49e+01  -3.3 3.73e-01 3.14e-02h  5
  81 -1.2017829e-01 1.23e-01 5.41e+05  -6.0 4.20e+01  -3.8 5.70e-01 9.25e-03h  7
  82 -1.1962356e-01 1.30e-01 7.22e+05  -6.0 3.40e+01  -3.4 6.63e-01 3.12e-02h  5
  83 -1.1952293e-01 1.29e-01 6.83e+05  -6.0 4.35e+01  -3.9 1.28e-01 4.88e-03h  7
  84 -1.1305015e-01 1.13e-01 4.75e+05  -6.0 3.39e+01  -3.4 1.00e+00 4.06e-01H  1
  85 -1.1304329e-01 1.13e-01 4.75e+05  -6.0 1.19e+02  -3.9 2.83e-04 5.79e-04h  8
  86 -1.0865297e-01 4.68e-02 4.13e+05  -6.0 1.49e+01  -3.5 3.28e-01 1.00e+00H  1
  87 -1.1111797e-01 1.59e-01 5.02e+05  -6.0 5.04e+00  -4.0 6.17e-01 9.96e-01h  1
  88r-1.1111797e-01 1.59e-01 1.00e+03  -1.2 0.00e+00  -4.4 0.00e+00 2.72e-07R  3
  89r-1.1108054e-01 1.53e-01 1.00e+03  -1.2 1.26e+05    -  1.27e-05 3.43e-05f  1
iter    objective    inf_pr   inf_du lg(mu)  ||d||  lg(rg) alpha_du alpha_pr  ls
  90 -1.1112475e-01 3.68e-02 7.59e+06  -6.0 3.34e+00    -  6.83e-01 7.60e-01h  1
  91 -1.1131989e-01 1.44e-03 1.77e+07  -6.0 1.14e+00    -  7.60e-01 9.62e-01h  1
  92 -1.1220666e-01 3.04e-03 8.26e+01  -6.0 2.07e+00    -  5.93e-01 1.00e+00f  1
  93 -1.1448986e-01 1.97e-02 1.41e+01  -6.0 5.10e+00    -  4.61e-01 1.00e+00h  1
  94 -1.1873831e-01 6.86e-02 6.08e+00  -6.0 9.48e+00    -  6.07e-01 1.00e+00h  1
  95 -1.2863209e-01 2.31e-02 1.65e+01  -6.0 2.34e+01    -  4.59e-01 1.00e+00H  1
  96 -1.3685798e-01 1.59e-01 1.65e+01  -6.0 3.62e+01    -  7.87e-01 5.69e-01h  1
  97 -1.3958296e-01 1.49e-01 3.15e+01  -6.0 1.97e+02    -  5.39e-01 6.43e-02h  3
  98 -1.5651269e-01 9.16e-01 4.33e+01  -6.0 5.31e+02    -  1.61e-02 2.12e-01h  1
  99 -1.6210488e-01 7.27e-01 4.28e+01  -6.0 8.56e+02    -  3.46e-02 4.77e-02h  1
iter    objective    inf_pr   inf_du lg(mu)  ||d||  lg(rg) alpha_du alpha_pr  ls
 100 -1.6325250e-01 7.05e-01 2.56e+03  -6.0 9.56e+02    -  3.88e-02 1.16e-02h  1
 101 -1.6496597e-01 6.72e-01 3.28e+03  -6.0 3.57e+03    -  7.95e-03 5.38e-03f  1
 102 -1.7397285e-01 1.21e+00 2.48e+03  -6.0 1.64e+02    -  2.47e-01 2.46e-01h  1
 103 -1.7776635e-01 1.39e+00 1.78e+03  -6.0 1.77e+02    -  1.58e-01 1.40e-01h  1
 104 -1.8242911e-01 1.88e+00 3.94e+03  -6.0 1.33e+02    -  7.00e-02 1.67e-01h  1
 105 -1.8975203e-01 3.99e+00 5.46e+03  -6.0 1.35e+02    -  3.60e-03 3.07e-01f  1
 106 -1.9088033e-01 3.84e+00 5.19e+03  -6.0 1.55e+02    -  5.23e-02 6.64e-02h  1
 107 -1.9247331e-01 3.70e+00 4.31e+03  -6.0 1.66e+02    -  2.20e-01 9.35e-02f  1
 108 -1.9595285e-01 4.08e+00 3.51e+03  -6.0 2.25e+02    -  3.17e-01 1.88e-01h  1
 109 -1.9848796e-01 4.15e+00 3.06e+03  -6.0 3.35e+02    -  5.16e-01 1.27e-01h  1
iter    objective    inf_pr   inf_du lg(mu)  ||d||  lg(rg) alpha_du alpha_pr  ls
 110 -2.0432671e-01 5.38e+00 2.33e+03  -6.0 5.94e+02    -  6.57e-01 2.36e-01h  1
 111 -2.1126525e-01 6.98e+00 1.81e+03  -6.0 1.17e+03    -  9.45e-03 2.28e-01h  1
 112 -2.1602080e-01 4.52e+00 1.18e+03  -6.0 7.70e+02    -  1.42e-01 3.35e-01h  1
 113 -2.2419315e-01 3.24e+00 4.79e+02  -6.0 6.33e+02    -  3.04e-01 5.91e-01h  1
 114 -2.2521158e-01 2.90e+00 4.27e+02  -6.0 1.17e+03    -  3.48e-01 1.09e-01h  1
 115 -2.2762403e-01 3.86e+00 3.06e+02  -6.0 1.09e+03    -  6.18e-01 2.84e-01h  1
 116 -2.2722669e-01 1.43e+00 1.12e+02  -6.0 2.66e+00  -4.9 8.05e-02 6.30e-01h  1
 117 -2.2715137e-01 1.12e-01 7.57e+00  -6.0 3.20e+00  -5.4 9.86e-01 9.34e-01h  1
 118 -2.2722032e-01 6.59e-02 3.85e+00  -6.0 7.91e+00  -5.9 9.78e-01 4.26e-01h  1
 119 -2.2756757e-01 5.62e-02 2.66e+00  -6.0 2.12e+01  -6.3 1.00e+00 1.00e+00h  1
iter    objective    inf_pr   inf_du lg(mu)  ||d||  lg(rg) alpha_du alpha_pr  ls
 120 -2.2784318e-01 7.45e-02 2.96e+01  -6.0 4.58e+01  -6.8 1.00e+00 3.38e-01h  1
 121 -2.2839191e-01 1.54e-01 2.95e+00  -6.0 7.53e+01  -7.3 1.00e+00 6.61e-01h  1
 122 -2.3084558e-01 3.52e+00 3.24e+01  -6.0 2.13e+02  -7.8 9.30e-01 1.00e+00f  1
 123 -2.3089717e-01 2.57e+00 2.20e+01  -6.0 1.29e+01  -6.4 4.35e-01 3.01e-01h  1
 124 -2.3141779e-01 1.45e+00 7.11e+00  -6.0 2.73e+01  -6.9 1.00e+00 1.00e+00h  1
 125 -2.3154465e-01 3.49e-02 4.89e+00  -6.0 3.14e+00  -5.6 1.00e+00 1.00e+00h  1
 126 -2.3174385e-01 3.33e-02 4.73e+02  -6.0 1.88e+01  -6.1 5.44e-01 3.28e-01h  1
 127 -2.3215878e-01 2.24e-01 2.99e+03  -6.0 1.37e+01  -6.6 3.63e-01 4.65e-01h  1
 128 -2.3288781e-01 1.36e+00 4.51e+05  -6.0 3.93e+01  -7.0 1.70e-02 5.90e-01f  1
 129 -2.3337705e-01 1.00e+00 2.20e+05  -6.0 5.52e+01  -7.5 2.65e-01 5.09e-01h  1
Error in an AMPL evaluation. Run with "halt_on_ampl_error yes" to see details.
Warning: Cutting back alpha due to evaluation error
iter    objective    inf_pr   inf_du lg(mu)  ||d||  lg(rg) alpha_du alpha_pr  ls
 130 -2.3351700e-01 1.00e+00 2.20e+05  -6.0 2.74e+03  -8.0 5.11e-03 1.09e-03h  2
Error in an AMPL evaluation. Run with "halt_on_ampl_error yes" to see details.
Warning: Cutting back alpha due to evaluation error
 131 -2.3417641e-01 9.51e-01 2.00e+05  -6.0 3.61e+02  -8.5 5.36e-02 9.20e-02h  2
Error in an AMPL evaluation. Run with "halt_on_ampl_error yes" to see details.
Warning: Cutting back alpha due to evaluation error
 132 -2.3512977e-01 9.41e-01 1.85e+05  -6.0 1.24e+03  -8.9 2.72e-01 7.39e-02h  2
 133 -2.3626117e-01 7.80e-01 1.42e+05  -6.0 3.17e+02  -8.5 3.97e-01 2.33e-01h  1
 134 -2.4021697e-01 5.73e+00 7.37e+04  -6.0 1.14e+03  -9.0 3.49e-01 4.80e-01h  1
 135 -2.4059681e-01 5.57e+00 7.10e+04  -6.0 2.59e+03  -9.5 2.97e-01 3.62e-02h  1
 136 -2.4396826e-01 6.25e+00 2.31e+04  -6.0 8.52e+02  -9.0 2.28e-02 6.75e-01h  1
 137 -2.4509300e-01 5.31e+00 1.95e+04  -6.0 2.09e+03  -9.5 3.86e-01 1.56e-01h  1
 138 -2.4781179e-01 8.78e+00 2.40e+01  -6.0 6.58e+02  -9.1 3.33e-01 1.00e+00h  1
 139 -2.4934733e-01 1.47e+01 4.15e+01  -6.0 3.17e+03  -9.6 2.51e-01 1.89e-01h  1
iter    objective    inf_pr   inf_du lg(mu)  ||d||  lg(rg) alpha_du alpha_pr  ls
 140 -2.5070053e-01 2.29e+01 6.75e+01  -6.0 3.28e+04 -10.0 1.62e-02 1.91e-02h  1
 141 -2.5087490e-01 2.24e+01 6.59e+01  -6.0 2.34e+03  -9.6 6.48e-02 2.77e-02h  1
 142 -2.5135992e-01 2.33e+01 6.88e+01  -6.0 2.28e+04 -10.1 1.28e-02 1.01e-02h  1
 143 -2.5347989e-01 3.06e+01 9.28e+01  -6.0 2.80e+03  -9.7 4.82e-01 2.74e-01h  1
 144 -2.5401314e-01 2.50e+01 7.58e+01  -6.0 1.94e+03 -10.1 8.52e-02 1.85e-01h  1
 145 -2.5485769e-01 1.52e+01 5.84e+01  -6.0 8.54e+02  -9.7 3.58e-03 3.93e-01h  1
 146 -2.5499406e-01 1.49e+01 5.77e+01  -6.0 1.88e+03 -10.2 6.03e-02 2.36e-02h  1
 147 -2.5588457e-01 6.24e+00 4.23e+01  -6.0 8.33e+02  -9.8 2.21e-01 5.80e-01h  1
 148 -2.5601224e-01 5.68e+00 3.77e+01  -6.0 1.61e+03 -10.2 1.19e-01 9.02e-02h  1
 149 -2.5601132e-01 4.03e+00 2.59e+01  -6.0 9.64e+02  -9.8 3.05e-01 3.24e-01h  1
iter    objective    inf_pr   inf_du lg(mu)  ||d||  lg(rg) alpha_du alpha_pr  ls
 150 -2.5610563e-01 3.77e+00 1.96e+01  -6.0 1.39e+03 -10.3 3.36e-01 1.47e-01h  1
 151 -2.5622896e-01 2.94e+00 1.18e+01  -6.0 7.29e+02  -9.9 2.93e-01 4.77e-01h  1
 152 -2.5623240e-01 2.30e+00 2.61e+01  -6.0 3.30e+02  -9.4 5.68e-02 2.52e-01h  1
 153 -2.5623437e-01 2.20e+00 1.19e+01  -6.0 1.19e+02  -7.2 2.40e-02 4.11e-02h  1
 154 -2.5622774e-01 5.49e-01 1.94e+01  -6.0 1.59e+01  -7.7 3.17e-01 7.51e-01h  1
 155 -2.5623148e-01 1.54e-01 1.01e+01  -6.0 9.70e+00  -7.3 2.92e-01 7.19e-01h  1
 156 -2.5623317e-01 7.71e-02 3.71e+00  -6.0 2.28e+01  -7.7 8.48e-01 5.01e-01h  1
 157 -2.5620996e-01 6.15e-02 2.28e+01  -6.0 7.51e+01  -8.2 5.74e-01 4.36e-01h  1
 158 -2.5617040e-01 1.29e-01 2.36e+01  -6.0 1.95e+01  -6.9 9.03e-01 1.00e+00h  1
 159 -2.5618822e-01 3.97e-02 9.60e+00  -6.0 6.67e+00  -6.5 5.74e-01 1.00e+00h  1
iter    objective    inf_pr   inf_du lg(mu)  ||d||  lg(rg) alpha_du alpha_pr  ls
 160 -2.5610897e-01 3.24e-01 9.90e+01  -6.0 1.66e+01  -6.9 8.92e-01 1.00e+00h  1
 161 -2.5617512e-01 2.17e-01 1.22e+01  -6.0 1.94e+01  -7.4 7.16e-01 1.00e+00h  1
 162 -2.5624385e-01 4.45e-01 2.87e+01  -6.0 1.48e+02  -7.9 1.41e-01 7.71e-02h  2
 163 -2.5639051e-01 1.51e+00 7.84e+01  -6.0 7.55e+01  -7.5 1.15e-01 2.35e-01h  1
 164 -2.5635266e-01 2.95e-01 3.59e+01  -6.0 4.17e+01  -7.9 1.73e-01 1.00e+00f  1
 165 -2.5639834e-01 2.30e-02 4.45e-01  -6.0 3.30e+00  -5.7 1.00e+00 1.00e+00h  1
 166 -2.5658069e-01 6.18e-01 4.50e+01  -6.0 9.08e+00  -6.2 1.00e+00 9.37e-01h  1
 167 -2.5698855e-01 2.77e+00 1.93e+02  -6.0 5.39e+01  -6.7 2.38e-01 2.01e-01h  1
 168 -2.5743197e-01 1.08e+00 3.75e+02  -6.0 1.53e+01  -7.1 5.27e-05 1.00e+00h  1
 169 -2.5746087e-01 9.57e-01 2.15e+02  -6.0 4.58e+00  -5.8 1.00e+00 8.93e-01H  1
iter    objective    inf_pr   inf_du lg(mu)  ||d||  lg(rg) alpha_du alpha_pr  ls
 170 -2.5756162e-01 9.02e-03 3.61e+01  -6.0 5.35e+00  -6.3 1.00e+00 1.00e+00h  1
 171 -2.5770033e-01 4.22e-01 2.46e+01  -6.0 1.12e+01  -6.8 1.00e+00 7.74e-01h  1
 172 -2.5776143e-01 4.92e-02 3.57e+00  -6.0 8.78e+00  -7.3 1.00e+00 1.00e+00h  1
 173 -2.5784484e-01 7.87e-02 6.23e+00  -6.0 1.64e+01  -6.8 3.77e-01 3.63e-01h  1
 174 -2.5798883e-01 1.81e-01 1.69e+01  -6.0 1.04e+01  -7.3 1.00e+00 1.00e+00h  1
 175 -2.5807821e-01 1.23e-01 1.06e+02  -6.0 3.06e+01  -7.8 3.64e-01 4.24e-01h  1
 176 -2.5819324e-01 8.24e-02 1.28e+03  -6.0 9.24e+01  -8.3 1.00e+00 3.50e-01h  1
 177 -2.5840388e-01 2.79e-01 8.16e+02  -6.0 4.62e+02  -8.7 3.18e-01 2.69e-01h  1
 178 -2.5863695e-01 1.15e+00 7.49e+02  -6.0 2.28e+05  -9.2 8.50e-04 7.67e-04h  1
 179 -2.5874637e-01 6.45e-01 3.96e+03  -6.0 1.11e+02  -8.8 1.71e-01 4.41e-01h  1
iter    objective    inf_pr   inf_du lg(mu)  ||d||  lg(rg) alpha_du alpha_pr  ls
 180 -2.5874597e-01 3.33e-01 1.64e+03  -6.0 3.46e+01  -7.5 1.75e-02 4.89e-01h  1
 181 -2.5886483e-01 8.73e-02 5.53e+00  -6.0 5.44e+01  -7.9 1.00e+00 1.00e+00h  1
 182 -2.5915309e-01 7.29e-01 7.50e+00  -6.0 1.58e+02  -8.4 9.06e-01 9.96e-01h  1
 183 -2.5941552e-01 8.72e-01 4.11e+01  -6.0 2.53e+02  -8.9 8.90e-01 5.24e-01h  1
 184 -2.5972587e-01 2.90e+00 9.99e+02  -6.0 4.54e+02  -9.4 1.01e-01 8.85e-01h  1
 185 -2.5992430e-01 6.02e+00 1.70e+01  -6.0 6.27e+02  -9.8 1.00e+00 1.00e+00h  1
 186 -2.5993853e-01 1.81e+01 1.80e+02  -6.0 6.38e+03 -10.3 1.04e-01 1.57e-01h  1
 187 -2.6010839e-01 2.68e+01 6.84e+02  -6.0 1.84e+03  -9.9 2.00e-01 6.01e-01h  1
 188 -2.6013761e-01 3.46e+01 6.30e+02  -6.0 2.38e+04    -  1.07e-01 6.71e-02h  1
 189 -2.6017391e-01 5.04e+01 5.75e+02  -6.0 1.93e+04    -  3.65e-02 9.46e-02h  1
iter    objective    inf_pr   inf_du lg(mu)  ||d||  lg(rg) alpha_du alpha_pr  ls
 190 -2.6045280e-01 1.23e+01 4.02e+03  -6.0 9.18e+02 -10.4 3.55e-02 9.57e-01h  1
 191 -2.6016800e-01 9.96e+00 2.16e+03  -6.0 8.76e+02  -9.9 8.60e-03 6.76e-01h  1
 192 -2.6004215e-01 5.92e+00 1.26e+03  -6.0 3.72e+00  -5.0 1.60e-01 4.06e-01h  1
 193 -2.5999190e-01 3.17e+00 5.39e+02  -6.0 7.11e+00  -5.5 8.70e-01 4.64e-01h  1
 194 -2.5987868e-01 9.94e-03 1.72e+01  -6.0 6.43e-01  -5.1 1.00e+00 1.00e+00h  1
 195 -2.5991774e-01 3.38e-03 3.87e+01  -6.0 1.35e+00  -5.5 1.00e+00 6.63e-01h  1
 196 -2.6001954e-01 5.31e-03 3.31e+00  -6.0 2.90e+00  -6.0 1.00e+00 1.00e+00f  1
 197 -2.6008209e-01 5.39e-03 7.21e+00  -6.0 7.36e+00  -6.5 8.28e-01 4.64e-01h  1
 198 -2.6015322e-01 1.12e-02 6.33e+00  -6.0 1.42e+01  -7.0 6.98e-01 4.80e-01f  1
 199 -2.6033501e-01 1.11e-01 1.39e+00  -6.0 2.89e+01  -7.4 1.00e+00 1.00e+00f  1
iter    objective    inf_pr   inf_du lg(mu)  ||d||  lg(rg) alpha_du alpha_pr  ls
 200 -2.6047964e-01 1.38e-01 1.62e+00  -6.0 3.75e+01  -7.9 1.00e+00 1.00e+00h  1
 201 -2.6052810e-01 2.04e-01 5.50e-01  -6.0 1.09e+02  -8.4 1.00e+00 1.00e+00h  1
 202 -2.6059652e-01 2.18e+00 2.75e+01  -6.0 3.57e+02  -8.9 1.00e+00 1.00e+00h  1
 203 -2.6084139e-01 2.60e+01 3.45e+02  -6.0 1.22e+03  -9.3 3.86e-01 1.00e+00h  1
 204 -2.6075066e-01 2.57e+00 4.49e+01  -6.0 1.87e+02  -9.8 4.38e-01 9.16e-01h  1
 205 -2.6075805e-01 1.70e+00 3.67e+01  -6.0 1.79e+03    -  1.00e+00 3.41e-01h  1
 206 -2.6075324e-01 1.50e+00 2.37e+01  -6.0 1.28e+03    -  1.00e+00 3.58e-01h  1
 207 -2.6074751e-01 2.76e+00 1.64e+00  -6.0 7.49e+02    -  2.46e-01 9.33e-01h  1
 208 -2.6074716e-01 2.68e+00 3.49e+01  -6.0 4.13e+03    -  5.21e-01 2.70e-02h  1
 209 -2.6074160e-01 4.68e+00 9.43e+00  -6.0 9.77e+02    -  1.00e+00 6.18e-01h  1
iter    objective    inf_pr   inf_du lg(mu)  ||d||  lg(rg) alpha_du alpha_pr  ls
 210 -2.6074297e-01 7.22e-01 1.17e+01  -6.0 1.51e+02    -  9.20e-03 8.87e-01h  1
 211 -2.6074380e-01 2.84e-01 1.42e+01  -6.0 1.56e+02    -  1.01e-01 1.00e+00f  1
 212 -2.6074351e-01 3.21e-01 1.20e+01  -6.0 6.49e+02    -  1.00e+00 1.21e-01h  2
 213 -2.6074317e-01 1.28e-01 3.56e-01  -6.0 9.58e+01    -  1.00e+00 8.22e-01h  1
 214 -2.6074342e-01 2.75e-02 1.48e-03  -6.0 4.87e+01    -  1.00e+00 1.00e+00f  1
 215 -2.6074342e-01 3.69e-05 1.98e-06  -6.0 1.82e+00    -  1.00e+00 1.00e+00h  1
 216 -2.6074342e-01 2.82e-10 1.52e-11  -6.0 2.81e-03    -  1.00e+00 1.00e+00h  1
 217 -2.6122813e-01 1.39e+00 8.07e+01  -7.5 2.65e+03    -  5.02e-01 2.19e-01f  1
 218 -2.6141738e-01 3.76e+00 5.86e+01  -7.5 3.37e+03    -  3.06e-02 1.19e-01h  1
 219 -2.6144952e-01 3.63e+00 9.07e+01  -7.5 5.19e+02  -9.4 2.86e-01 3.66e-02h  1
iter    objective    inf_pr   inf_du lg(mu)  ||d||  lg(rg) alpha_du alpha_pr  ls
 220 -2.6189207e-01 1.31e+01 4.97e+01  -7.5 2.56e+03    -  7.71e-04 3.84e-01h  1
 221 -2.6203950e-01 9.47e+00 7.12e+01  -7.5 1.83e+03    -  4.92e-01 2.80e-01h  1
 222 -2.6215833e-01 6.73e+00 8.28e+01  -7.5 1.62e+03    -  6.41e-01 2.90e-01h  1
 223 -2.6228432e-01 2.72e+00 3.38e+01  -7.5 1.99e+02  -9.9 5.53e-01 5.98e-01h  1
 224 -2.6237320e-01 1.18e+00 1.23e+01  -7.5 1.39e+03    -  1.89e-01 6.55e-01h  1
 225 -2.6237413e-01 1.16e+00 1.21e+01  -7.5 4.35e+02 -10.4 3.22e-02 1.70e-02h  1
 226 -2.6240510e-01 4.72e-01 5.73e+00  -7.5 4.33e+02 -10.8 1.47e-01 6.53e-01f  1
 227 -2.6241202e-01 1.10e+01 5.52e+00  -7.5 8.43e+03    -  6.30e-02 1.13e-01h  1
 228 -2.6241898e-01 4.08e+00 5.93e+00  -7.5 4.31e+02    -  1.70e-01 6.60e-01h  1
 229 -2.6241834e-01 3.98e+00 5.21e+00  -7.5 1.85e+03    -  1.11e-01 4.05e-02h  1
iter    objective    inf_pr   inf_du lg(mu)  ||d||  lg(rg) alpha_du alpha_pr  ls
 230 -2.6241701e-01 2.70e+00 2.11e+00  -7.5 2.76e+02    -  5.64e-01 3.50e-01h  2
 231 -2.6241689e-01 2.59e+00 6.22e-01  -7.5 6.09e+02    -  1.00e+00 4.16e-02h  3
 232 -2.6241682e-01 2.53e+00 5.98e-01  -7.5 5.34e+02    -  9.28e-01 2.32e-02h  5
 233 -2.6241681e-01 2.52e+00 5.94e-01  -7.5 5.48e+02    -  1.00e+00 4.83e-03h  7
 234 -2.6241680e-01 2.52e+00 5.93e-01  -7.5 5.02e+02    -  3.95e-01 2.57e-03h  8
 235 -2.6241417e-01 1.19e-01 4.11e-02  -7.5 9.18e+01    -  8.43e-01 1.00e+00h  1
 236 -2.6241397e-01 4.31e-02 1.73e-05  -7.5 2.62e+01 -10.4 1.00e+00 1.00e+00h  1
 237 -2.6241406e-01 8.62e-01 2.84e-02  -7.5 3.02e+02    -  8.22e-01 1.00e+00H  1
 238 -2.6241407e-01 8.97e-02 1.10e-02  -7.5 5.07e+01    -  7.56e-01 1.00e+00h  1
 239 -2.6241408e-01 3.04e-02 2.59e-05  -7.5 3.85e+01 -10.9 1.00e+00 1.00e+00h  1
iter    objective    inf_pr   inf_du lg(mu)  ||d||  lg(rg) alpha_du alpha_pr  ls
 240 -2.6241472e-01 2.87e+00 6.29e-01  -7.5 1.22e+03    -  5.52e-01 1.00e+00H  1
 241 -2.6241476e-01 2.00e-01 3.58e-03  -7.5 1.21e+02 -11.4 1.00e+00 1.00e+00h  1
 242 -2.6241491e-01 1.90e+00 3.05e-03  -7.5 3.82e+02 -11.8 1.00e+00 1.00e+00h  1
 243 -2.6241554e-01 3.34e+00 6.31e-02  -7.5 1.23e+03 -12.3 1.00e+00 1.00e+00H  1
 244 -2.6241569e-01 4.48e+00 9.18e-01  -7.5 2.45e+04    -  7.82e-02 1.19e-02h  4
 245 -2.6241577e-01 4.64e+00 2.47e+00  -7.5 5.06e+03    -  1.00e+00 2.84e-02h  5
 246 -2.6241596e-01 4.14e+00 3.82e-01  -7.5 7.14e+02    -  1.00e+00 5.00e-01h  2
 247 -2.6241604e-01 4.33e+00 5.64e-01  -7.5 6.03e+03    -  9.73e-02 2.32e-02h  5
 248 -2.6241657e-01 1.19e+01 3.68e-02  -7.5 9.08e+02 -11.9 1.00e+00 1.00e+00h  1
 249 -2.6241633e-01 2.65e+00 2.15e-01  -7.5 4.32e+02    -  4.12e-01 1.00e+00h  1
iter    objective    inf_pr   inf_du lg(mu)  ||d||  lg(rg) alpha_du alpha_pr  ls
 250 -2.6241735e-01 1.40e+01 1.15e-01  -7.5 1.36e+03    -  9.50e-01 1.00e+00H  1
 251 -2.6241727e-01 2.38e-01 4.52e-03  -7.5 1.37e+02    -  1.00e+00 1.00e+00h  1
 252 -2.6241727e-01 1.35e-03 3.29e-05  -7.5 9.03e+00    -  1.00e+00 1.00e+00h  1
 253 -2.6241727e-01 1.77e-07 1.79e-09  -7.5 1.08e-01    -  1.00e+00 1.00e+00h  1
 254 -2.6241977e-01 2.99e+00 2.45e+00  -9.0 1.70e+03    -  5.24e-01 2.58e-01h  1
 255 -2.6242185e-01 6.18e+01 1.29e+00  -9.0 5.71e+03    -  2.68e-01 3.41e-01h  1
 256 -2.6242274e-01 4.38e+01 5.94e-01  -9.0 1.56e+03    -  3.78e-01 4.23e-01h  1
 257 -2.6242315e-01 3.66e+01 3.73e-01  -9.0 1.85e+03    -  2.54e-01 2.81e-01h  1
 258 -2.6242423e-01 1.00e+02 1.39e+01  -9.0 4.56e+03    -  3.28e-02 6.49e-01h  1
 259 -2.6242529e-01 4.83e+01 3.88e+01  -9.0 1.82e+03    -  9.40e-04 1.00e+00h  1
iter    objective    inf_pr   inf_du lg(mu)  ||d||  lg(rg) alpha_du alpha_pr  ls
 260 -2.6242551e-01 9.27e+00 7.58e+00  -9.0 7.77e+02    -  1.15e-01 1.00e+00h  1
 261 -2.6242585e-01 1.79e+01 7.64e-01  -9.0 1.12e+03    -  4.28e-01 1.00e+00h  1
 262 -2.6242597e-01 8.59e+00 1.77e-01  -9.0 6.71e+02    -  7.60e-01 9.19e-01h  1
 263 -2.6242598e-01 8.58e+00 1.83e-01  -9.0 8.06e+03    -  2.03e-01 5.20e-03h  5
 264 -2.6242601e-01 8.55e+00 1.24e-01  -9.0 2.23e+03    -  9.12e-01 7.01e-02h  3
 265 -2.6242610e-01 8.75e+00 4.65e-02  -9.0 1.19e+03    -  9.92e-01 3.57e-01H  1
 266 -2.6242604e-01 1.42e+00 5.27e-02  -9.0 3.11e+02    -  4.77e-01 1.00e+00h  1
 267 -2.6242637e-01 3.60e+01 4.24e-02  -9.0 2.00e+03    -  9.90e-02 7.87e-01h  1
 268 -2.6242632e-01 2.80e+01 3.46e-02  -9.0 1.06e+03    -  1.80e-01 2.50e-01h  3
 269 -2.6242634e-01 2.81e+01 3.29e-02  -9.0 3.26e+04    -  5.04e-02 2.97e-03h  5
iter    objective    inf_pr   inf_du lg(mu)  ||d||  lg(rg) alpha_du alpha_pr  ls
 270 -2.6242638e-01 2.83e+01 4.31e-02  -9.0 1.50e+04    -  1.02e-01 1.29e-02h  4
 271 -2.6242655e-01 9.21e+00 2.67e-02  -9.0 7.44e+02 -12.4 2.80e-01 1.00e+00h  1
 272 -2.6242700e-01 5.08e+01 1.72e-02  -9.0 3.47e+03    -  2.53e-01 6.27e-01H  1
 273 -2.6242680e-01 1.76e+01 4.39e-03  -9.0 1.04e+03 -12.8 1.00e+00 1.00e+00h  1
 274 -2.6242684e-01 1.69e+01 8.01e-02  -9.0 2.54e+03    -  1.50e-01 8.69e-02h  4
 275 -2.6242684e-01 1.69e+01 6.30e-01  -9.0 2.43e+04 -13.3 5.59e-02 5.68e-04h  7
 276 -2.6242689e-01 1.53e+01 5.75e-01  -9.0 1.56e+03    -  5.75e-02 2.50e-01h  3
 277 -2.6242699e-01 1.05e+01 3.23e-03  -9.0 7.63e+02 -12.9 1.00e+00 1.00e+00h  1
Error in an AMPL evaluation. Run with "halt_on_ampl_error yes" to see details.
Warning: Cutting back alpha due to evaluation error
 278 -2.6242699e-01 1.05e+01 2.73e-01  -9.0 2.53e+04    -  1.98e-02 4.63e-04h  8
 279 -2.6242720e-01 1.59e+01 4.41e-01  -9.0 1.54e+03 -13.4 2.72e-02 1.00e+00H  1
iter    objective    inf_pr   inf_du lg(mu)  ||d||  lg(rg) alpha_du alpha_pr  ls
 280 -2.6242719e-01 1.34e-01 3.87e-01  -9.0 6.93e+01 -12.0 7.98e-01 1.00e+00h  1
 281 -2.6242724e-01 1.28e+01 2.46e-01  -9.0 2.08e+03    -  7.84e-01 3.84e-01h  2
 282 -2.6242727e-01 1.32e+01 2.31e-01  -9.0 1.97e+03    -  1.00e+00 1.84e-01h  3
 283 -2.6242730e-01 9.49e+00 2.09e-03  -9.0 6.54e+02    -  1.00e+00 1.00e+00h  1
 284 -2.6242730e-01 1.00e+00 2.92e-04  -9.0 2.03e+02    -  1.00e+00 1.00e+00h  1
 285 -2.6242730e-01 3.05e-02 1.11e-05  -9.0 3.77e+01    -  1.00e+00 1.00e+00h  1
 286 -2.6242730e-01 2.41e-05 6.33e-09  -9.0 1.06e+00    -  1.00e+00 1.00e+00h  1
 287 -2.6242730e-01 3.22e-10 1.52e-14  -9.0 9.97e-04    -  1.00e+00 1.00e+00h  1

Number of Iterations....: 287

                                   (scaled)                 (unscaled)
Objective...............:  -2.6242729606556975e-01   -2.6242729606556975e-01
Dual infeasibility......:   1.5182299861749016e-14    1.5182299861749016e-14
Constraint violation....:   3.2220897022532113e-10    3.2220897022532113e-10
Complementarity.........:   9.0909092274666312e-10    9.0909092274666312e-10
Overall NLP error.......:   9.0909092274666312e-10    9.0909092274666312e-10


Number of objective function evaluations             = 834
Number of objective gradient evaluations             = 288
Number of equality constraint evaluations            = 838
Number of inequality constraint evaluations          = 835
Number of equality constraint Jacobian evaluations   = 289
Number of inequality constraint Jacobian evaluations = 289
Number of Lagrangian Hessian evaluations             = 287
Total CPU secs in IPOPT (w/o function evaluations)   =    652.287
Total CPU secs in NLP function evaluations           =     12.413

EXIT: Optimal Solution Found.
